Maximize
  - 4.0127011022212 edge_0_1_0_0 - 2.69349951517 edge_0_2_0_0
   - 0.76701176506716 edge_0_3_0_0 - 2.346984014562 edge_0_4_0_0
   - 1.6922739362592 edge_0_5_0_0 - 3.2584658458032 edge_0_6_0_0
   + 0.024566920425264 edge_0_7_0_0 - 3.4253316847456 edge_0_8_0_0
   - 0.1191356452488237 edge_1_2_0_0 + 0.1368644289417258 edge_1_3_0_0
   - 0.0458015839977782 edge_1_4_0_0 - 1.041610333065348 edge_1_5_0_0
   - 0.49440221943547 edge_1_7_0_0 - 0.3597339060790953 edge_1_8_0_0
   + 0.2428946996553203 edge_2_1_0_0 + 1.3296141363758 edge_2_3_0_0
   + 1.589203224551554 edge_2_4_0_0 + 1.020231870446 edge_2_5_0_0
   + 0.6637118704821801 edge_2_6_0_0 + 0.8444113920233601 edge_2_7_0_0
   + 1.52934 edge_2_8_0_0 + 2.637754741040257 edge_3_1_0_0
   + 2.635977643216452 edge_3_2_0_0 + 2.343539457252434 edge_3_4_0_0
   + 0.8175405903622522 edge_3_5_0_0 + 2.220250866650554 edge_3_6_0_0
   + 1.8560786798435 edge_3_7_0_0 + 2.856983328220759 edge_3_8_0_0
   - 1.367671037141023 edge_4_1_0_0 - 0.4521789565831681 edge_4_2_0_0
   - 0.0105190192013794 edge_4_3_0_0 + 0.177394859887833 edge_4_5_0_0
   - 0.9298917075637718 edge_4_6_0_0 + 0.30249455040285 edge_4_7_0_0
   + 0.1429534509134701 edge_4_8_0_0 - 0.7624832315566642 edge_5_1_0_0
   - 0.1589121989529 edge_5_2_0_0 - 0.1925757796944263 edge_5_3_0_0
   + 0.4498302593135749 edge_5_4_0_0 + 0.7491981139714643 edge_5_6_0_0
   + 0.6168113792019901 edge_5_7_0_0 + 0.3478991877694 edge_5_8_0_0
   - 0.6239663049518599 edge_6_1_0_0 - 0.47497174056768 edge_6_2_0_0
   - 0.3516908368253061 edge_6_3_0_0 - 0.1304859437777327 edge_6_4_0_0
   + 0.8529292657905698 edge_6_5_0_0 + 1.274467005828436 edge_6_7_0_0
   + 0.5511577998504 edge_6_8_0_0 + 0.23147255745421 edge_7_1_0_0
   + 0.5025951354071614 edge_7_2_0_0 + 1.619082080431444 edge_7_3_0_0
   + 0.9926247630584457 edge_7_4_0_0 + 3.3711173567064 edge_7_5_0_0
   + 3.57933351102 edge_7_6_0_0 + 2.3808784286192 edge_7_8_0_0
   - 1.164260042350032 edge_8_2_0_0 - 1.422478274426129 edge_8_3_0_0
   - 0.6349895176806937 edge_8_4_0_0 - 0.7909490248852502 edge_8_5_0_0
   - 1.10864715341724 edge_8_6_0_0 - 0.65613520218462 edge_8_7_0_0
Subject To
 one_parent_1: edge_0_1_0_0 + edge_2_1_0_0 + edge_3_1_0_0 + edge_4_1_0_0
   + edge_5_1_0_0 + edge_6_1_0_0 + edge_7_1_0_0 = 1
 consume_one_flow_unit_1: flow_0_1_0_0 - flow_1_2_0_0 - flow_1_3_0_0
   - flow_1_4_0_0 - flow_1_5_0_0 - flow_1_7_0_0 - flow_1_8_0_0
   + flow_2_1_0_0 + flow_3_1_0_0 + flow_4_1_0_0 + flow_5_1_0_0
   + flow_6_1_0_0 + flow_7_1_0_0 = 1
 one_parent_2: edge_0_2_0_0 + edge_1_2_0_0 + edge_3_2_0_0 + edge_4_2_0_0
   + edge_5_2_0_0 + edge_6_2_0_0 + edge_7_2_0_0 + edge_8_2_0_0 = 1
 consume_one_flow_unit_2: flow_0_2_0_0 + flow_1_2_0_0 - flow_2_1_0_0
   - flow_2_3_0_0 - flow_2_4_0_0 - flow_2_5_0_0 - flow_2_6_0_0
   - flow_2_7_0_0 - flow_2_8_0_0 + flow_3_2_0_0 + flow_4_2_0_0
   + flow_5_2_0_0 + flow_6_2_0_0 + flow_7_2_0_0 + flow_8_2_0_0 = 1
 one_parent_3: edge_0_3_0_0 + edge_1_3_0_0 + edge_2_3_0_0 + edge_4_3_0_0
   + edge_5_3_0_0 + edge_6_3_0_0 + edge_7_3_0_0 + edge_8_3_0_0 = 1
 consume_one_flow_unit_3: flow_0_3_0_0 + flow_1_3_0_0 + flow_2_3_0_0
   - flow_3_1_0_0 - flow_3_2_0_0 - flow_3_4_0_0 - flow_3_5_0_0
   - flow_3_6_0_0 - flow_3_7_0_0 - flow_3_8_0_0 + flow_4_3_0_0
   + flow_5_3_0_0 + flow_6_3_0_0 + flow_7_3_0_0 + flow_8_3_0_0 = 1
 one_parent_4: edge_0_4_0_0 + edge_1_4_0_0 + edge_2_4_0_0 + edge_3_4_0_0
   + edge_5_4_0_0 + edge_6_4_0_0 + edge_7_4_0_0 + edge_8_4_0_0 = 1
 consume_one_flow_unit_4: flow_0_4_0_0 + flow_1_4_0_0 + flow_2_4_0_0
   + flow_3_4_0_0 - flow_4_1_0_0 - flow_4_2_0_0 - flow_4_3_0_0
   - flow_4_5_0_0 - flow_4_6_0_0 - flow_4_7_0_0 - flow_4_8_0_0
   + flow_5_4_0_0 + flow_6_4_0_0 + flow_7_4_0_0 + flow_8_4_0_0 = 1
 one_parent_5: edge_0_5_0_0 + edge_1_5_0_0 + edge_2_5_0_0 + edge_3_5_0_0
   + edge_4_5_0_0 + edge_6_5_0_0 + edge_7_5_0_0 + edge_8_5_0_0 = 1
 consume_one_flow_unit_5: flow_0_5_0_0 + flow_1_5_0_0 + flow_2_5_0_0
   + flow_3_5_0_0 + flow_4_5_0_0 - flow_5_1_0_0 - flow_5_2_0_0
   - flow_5_3_0_0 - flow_5_4_0_0 - flow_5_6_0_0 - flow_5_7_0_0
   - flow_5_8_0_0 + flow_6_5_0_0 + flow_7_5_0_0 + flow_8_5_0_0 = 1
 one_parent_6: edge_0_6_0_0 + edge_2_6_0_0 + edge_3_6_0_0 + edge_4_6_0_0
   + edge_5_6_0_0 + edge_7_6_0_0 + edge_8_6_0_0 = 1
 consume_one_flow_unit_6: flow_0_6_0_0 + flow_2_6_0_0 + flow_3_6_0_0
   + flow_4_6_0_0 + flow_5_6_0_0 - flow_6_1_0_0 - flow_6_2_0_0
   - flow_6_3_0_0 - flow_6_4_0_0 - flow_6_5_0_0 - flow_6_7_0_0
   - flow_6_8_0_0 + flow_7_6_0_0 + flow_8_6_0_0 = 1
 one_parent_7: edge_0_7_0_0 + edge_1_7_0_0 + edge_2_7_0_0 + edge_3_7_0_0
   + edge_4_7_0_0 + edge_5_7_0_0 + edge_6_7_0_0 + edge_8_7_0_0 = 1
 consume_one_flow_unit_7: flow_0_7_0_0 + flow_1_7_0_0 + flow_2_7_0_0
   + flow_3_7_0_0 + flow_4_7_0_0 + flow_5_7_0_0 + flow_6_7_0_0
   - flow_7_1_0_0 - flow_7_2_0_0 - flow_7_3_0_0 - flow_7_4_0_0
   - flow_7_5_0_0 - flow_7_6_0_0 - flow_7_8_0_0 + flow_8_7_0_0 = 1
 one_parent_8: edge_0_8_0_0 + edge_1_8_0_0 + edge_2_8_0_0 + edge_3_8_0_0
   + edge_4_8_0_0 + edge_5_8_0_0 + edge_6_8_0_0 + edge_7_8_0_0 = 1
 consume_one_flow_unit_8: flow_0_8_0_0 + flow_1_8_0_0 + flow_2_8_0_0
   + flow_3_8_0_0 + flow_4_8_0_0 + flow_5_8_0_0 + flow_6_8_0_0
   + flow_7_8_0_0 - flow_8_2_0_0 - flow_8_3_0_0 - flow_8_4_0_0
   - flow_8_5_0_0 - flow_8_6_0_0 - flow_8_7_0_0 = 1
 root_flow: flow_0_1_0_0 + flow_0_2_0_0 + flow_0_3_0_0 + flow_0_4_0_0
   + flow_0_5_0_0 + flow_0_6_0_0 + flow_0_7_0_0 + flow_0_8_0_0 = 8
 inactive_no_flow_0_1_0_0: flow_0_1_0_0 - 1000 edge_0_1_0_0 <= 0
 inactive_no_flow_0_2_0_0: flow_0_2_0_0 - 1000 edge_0_2_0_0 <= 0
 inactive_no_flow_0_3_0_0: flow_0_3_0_0 - 1000 edge_0_3_0_0 <= 0
 inactive_no_flow_0_4_0_0: flow_0_4_0_0 - 1000 edge_0_4_0_0 <= 0
 inactive_no_flow_0_5_0_0: flow_0_5_0_0 - 1000 edge_0_5_0_0 <= 0
 inactive_no_flow_0_6_0_0: flow_0_6_0_0 - 1000 edge_0_6_0_0 <= 0
 inactive_no_flow_0_7_0_0: flow_0_7_0_0 - 1000 edge_0_7_0_0 <= 0
 inactive_no_flow_0_8_0_0: flow_0_8_0_0 - 1000 edge_0_8_0_0 <= 0
 inactive_no_flow_1_2_0_0: flow_1_2_0_0 - 1000 edge_1_2_0_0 <= 0
 inactive_no_flow_1_3_0_0: flow_1_3_0_0 - 1000 edge_1_3_0_0 <= 0
 inactive_no_flow_1_4_0_0: flow_1_4_0_0 - 1000 edge_1_4_0_0 <= 0
 inactive_no_flow_1_5_0_0: flow_1_5_0_0 - 1000 edge_1_5_0_0 <= 0
 inactive_no_flow_1_7_0_0: flow_1_7_0_0 - 1000 edge_1_7_0_0 <= 0
 inactive_no_flow_1_8_0_0: flow_1_8_0_0 - 1000 edge_1_8_0_0 <= 0
 inactive_no_flow_2_1_0_0: flow_2_1_0_0 - 1000 edge_2_1_0_0 <= 0
 inactive_no_flow_2_3_0_0: flow_2_3_0_0 - 1000 edge_2_3_0_0 <= 0
 inactive_no_flow_2_4_0_0: flow_2_4_0_0 - 1000 edge_2_4_0_0 <= 0
 inactive_no_flow_2_5_0_0: flow_2_5_0_0 - 1000 edge_2_5_0_0 <= 0
 inactive_no_flow_2_6_0_0: flow_2_6_0_0 - 1000 edge_2_6_0_0 <= 0
 inactive_no_flow_2_7_0_0: flow_2_7_0_0 - 1000 edge_2_7_0_0 <= 0
 inactive_no_flow_2_8_0_0: flow_2_8_0_0 - 1000 edge_2_8_0_0 <= 0
 inactive_no_flow_3_1_0_0: flow_3_1_0_0 - 1000 edge_3_1_0_0 <= 0
 inactive_no_flow_3_2_0_0: flow_3_2_0_0 - 1000 edge_3_2_0_0 <= 0
 inactive_no_flow_3_4_0_0: flow_3_4_0_0 - 1000 edge_3_4_0_0 <= 0
 inactive_no_flow_3_5_0_0: flow_3_5_0_0 - 1000 edge_3_5_0_0 <= 0
 inactive_no_flow_3_6_0_0: flow_3_6_0_0 - 1000 edge_3_6_0_0 <= 0
 inactive_no_flow_3_7_0_0: flow_3_7_0_0 - 1000 edge_3_7_0_0 <= 0
 inactive_no_flow_3_8_0_0: flow_3_8_0_0 - 1000 edge_3_8_0_0 <= 0
 inactive_no_flow_4_1_0_0: flow_4_1_0_0 - 1000 edge_4_1_0_0 <= 0
 inactive_no_flow_4_2_0_0: flow_4_2_0_0 - 1000 edge_4_2_0_0 <= 0
 inactive_no_flow_4_3_0_0: flow_4_3_0_0 - 1000 edge_4_3_0_0 <= 0
 inactive_no_flow_4_5_0_0: flow_4_5_0_0 - 1000 edge_4_5_0_0 <= 0
 inactive_no_flow_4_6_0_0: flow_4_6_0_0 - 1000 edge_4_6_0_0 <= 0
 inactive_no_flow_4_7_0_0: flow_4_7_0_0 - 1000 edge_4_7_0_0 <= 0
 inactive_no_flow_4_8_0_0: flow_4_8_0_0 - 1000 edge_4_8_0_0 <= 0
 inactive_no_flow_5_1_0_0: flow_5_1_0_0 - 1000 edge_5_1_0_0 <= 0
 inactive_no_flow_5_2_0_0: flow_5_2_0_0 - 1000 edge_5_2_0_0 <= 0
 inactive_no_flow_5_3_0_0: flow_5_3_0_0 - 1000 edge_5_3_0_0 <= 0
 inactive_no_flow_5_4_0_0: flow_5_4_0_0 - 1000 edge_5_4_0_0 <= 0
 inactive_no_flow_5_6_0_0: flow_5_6_0_0 - 1000 edge_5_6_0_0 <= 0
 inactive_no_flow_5_7_0_0: flow_5_7_0_0 - 1000 edge_5_7_0_0 <= 0
 inactive_no_flow_5_8_0_0: flow_5_8_0_0 - 1000 edge_5_8_0_0 <= 0
 inactive_no_flow_6_1_0_0: flow_6_1_0_0 - 1000 edge_6_1_0_0 <= 0
 inactive_no_flow_6_2_0_0: flow_6_2_0_0 - 1000 edge_6_2_0_0 <= 0
 inactive_no_flow_6_3_0_0: flow_6_3_0_0 - 1000 edge_6_3_0_0 <= 0
 inactive_no_flow_6_4_0_0: flow_6_4_0_0 - 1000 edge_6_4_0_0 <= 0
 inactive_no_flow_6_5_0_0: flow_6_5_0_0 - 1000 edge_6_5_0_0 <= 0
 inactive_no_flow_6_7_0_0: flow_6_7_0_0 - 1000 edge_6_7_0_0 <= 0
 inactive_no_flow_6_8_0_0: flow_6_8_0_0 - 1000 edge_6_8_0_0 <= 0
 inactive_no_flow_7_1_0_0: flow_7_1_0_0 - 1000 edge_7_1_0_0 <= 0
 inactive_no_flow_7_2_0_0: flow_7_2_0_0 - 1000 edge_7_2_0_0 <= 0
 inactive_no_flow_7_3_0_0: flow_7_3_0_0 - 1000 edge_7_3_0_0 <= 0
 inactive_no_flow_7_4_0_0: flow_7_4_0_0 - 1000 edge_7_4_0_0 <= 0
 inactive_no_flow_7_5_0_0: flow_7_5_0_0 - 1000 edge_7_5_0_0 <= 0
 inactive_no_flow_7_6_0_0: flow_7_6_0_0 - 1000 edge_7_6_0_0 <= 0
 inactive_no_flow_7_8_0_0: flow_7_8_0_0 - 1000 edge_7_8_0_0 <= 0
 inactive_no_flow_8_2_0_0: flow_8_2_0_0 - 1000 edge_8_2_0_0 <= 0
 inactive_no_flow_8_3_0_0: flow_8_3_0_0 - 1000 edge_8_3_0_0 <= 0
 inactive_no_flow_8_4_0_0: flow_8_4_0_0 - 1000 edge_8_4_0_0 <= 0
 inactive_no_flow_8_5_0_0: flow_8_5_0_0 - 1000 edge_8_5_0_0 <= 0
 inactive_no_flow_8_6_0_0: flow_8_6_0_0 - 1000 edge_8_6_0_0 <= 0
 inactive_no_flow_8_7_0_0: flow_8_7_0_0 - 1000 edge_8_7_0_0 <= 0
Bounds
Binaries
 edge_0_1_0_0 edge_0_2_0_0 edge_0_3_0_0 edge_0_4_0_0 edge_0_5_0_0
 edge_0_6_0_0 edge_0_7_0_0 edge_0_8_0_0 edge_1_2_0_0 edge_1_3_0_0
 edge_1_4_0_0 edge_1_5_0_0 edge_1_7_0_0 edge_1_8_0_0 edge_2_1_0_0
 edge_2_3_0_0 edge_2_4_0_0 edge_2_5_0_0 edge_2_6_0_0 edge_2_7_0_0
 edge_2_8_0_0 edge_3_1_0_0 edge_3_2_0_0 edge_3_4_0_0 edge_3_5_0_0
 edge_3_6_0_0 edge_3_7_0_0 edge_3_8_0_0 edge_4_1_0_0 edge_4_2_0_0
 edge_4_3_0_0 edge_4_5_0_0 edge_4_6_0_0 edge_4_7_0_0 edge_4_8_0_0
 edge_5_1_0_0 edge_5_2_0_0 edge_5_3_0_0 edge_5_4_0_0 edge_5_6_0_0
 edge_5_7_0_0 edge_5_8_0_0 edge_6_1_0_0 edge_6_2_0_0 edge_6_3_0_0
 edge_6_4_0_0 edge_6_5_0_0 edge_6_7_0_0 edge_6_8_0_0 edge_7_1_0_0
 edge_7_2_0_0 edge_7_3_0_0 edge_7_4_0_0 edge_7_5_0_0 edge_7_6_0_0
 edge_7_8_0_0 edge_8_2_0_0 edge_8_3_0_0 edge_8_4_0_0 edge_8_5_0_0
 edge_8_6_0_0 edge_8_7_0_0
End
